(set-info :smt-lib-version 2.6)
(set-logic LRA)
(set-info :source |
   Monniaux, David; Quantifier Elimination by Lazy Model Enumeration, CAV 2010
|)
(set-info :category "random")
; ./Mjollnir_examples/B4/formula_067.m
(set-info :status unsat)
(assert
 (exists ((|v11:0| Real) )(exists ((|v10:1| Real) )(exists ((|v9:2| Real) )(exists ((|v8:3| Real) )(forall ((|v7:4| Real) )(forall ((|v6:5| Real) )(forall ((|v5:6| Real) )(forall ((|v4:7| Real) )(exists ((|v3:8| Real) )(exists ((|v2:9| Real) )(exists ((|v1:10| Real) )(exists ((|v0:11| Real) )(let ((?x19 (- 12)))
(let ((?x162 (- 14)))
(let ((?x593 (* ?x162 |v2:9|)))
(let ((?x613 (+ (+ (* (- 1) |v6:5|) (* 16 |v5:6|)) (* 5 |v0:11|))))
(let ((?x112 (- 17)))
(let ((?x91 (- 7)))
(let ((?x550 (* ?x91 |v8:3|)))
(let ((?x607 (+ (+ (* (- 19) |v3:8|) (* 4 |v1:10|)) (* (- 6) |v1:10|))))
(let ((?x26 20))
(let ((?x599 (+ (+ (* (- 10) |v1:10|) (* 17 |v8:3|)) (* (- 6) |v5:6|))))
(let ((?x105 (- 11)))
(let ((?x10 9))
(let ((?x316 (* ?x10 |v7:4|)))
(let ((?x594 (+ (+ (+ (* 2 |v8:3|) (* (- 15) |v10:1|)) ?x316) ?x593)))
(let (($x617 (and (and (<= ?x594 ?x105) (<= (+ ?x599 (* (- 19) |v2:9|)) ?x26)) (and (<= (+ ?x607 ?x550) ?x112) (<= (+ ?x613 ?x593) ?x19)))))
(let ((?x221 (* ?x19 |v2:9|)))
(let ((?x585 (+ (+ (* (- 16) |v9:2|) (* (- 6) |v10:1|)) (* 4 |v11:0|))))
(let ((?x578 (+ (+ (* (- 16) |v8:3|) (* 13 |v6:5|)) (* 0 |v7:4|))))
(let ((?x52 (- 16)))
(let ((?x572 (+ (+ (+ (* (- 1) |v2:9|) (* ?x26 |v11:0|)) (* ?x105 |v9:2|)) (* 12 |v11:0|))))
(let ((?x23 (- 1)))
(let ((?x566 (+ (+ (+ (* ?x52 |v2:9|) (* 17 |v1:10|)) (* ?x23 |v0:11|)) (* ?x10 |v11:0|))))
(let (($x589 (and (and (<= ?x566 ?x23) (<= ?x572 ?x52)) (or (<= (+ ?x578 (* ?x19 |v1:10|)) ?x10) (<= (+ ?x585 ?x221) ?x91)))))
(let ((?x94 (- 10)))
(let ((?x14 (- 19)))
(let ((?x185 (* ?x14 |v6:5|)))
(let ((?x557 (+ (+ (+ (* 19 |v3:8|) (* 18 |v0:11|)) ?x221) ?x185)))
(let ((?x41 5))
(let ((?x381 (* ?x41 |v8:3|)))
(let (($x553 (<= (+ (+ (+ (* ?x105 |v5:6|) (* 11 |v1:10|)) ?x550) ?x381) ?x41)))
(let ((?x47 7))
(let ((?x412 (* ?x47 |v8:3|)))
(let ((?x543 (+ (+ (* 13 |v5:6|) (* 2 |v3:8|)) (* ?x23 |v4:7|))))
(let ((?x255 3))
(let ((?x519 (* ?x112 |v11:0|)))
(let ((?x537 (+ (+ (+ (* ?x23 |v10:1|) (* ?x112 |v8:3|)) (* 8 |v5:6|)) ?x519)))
(let (($x560 (and (and (<= ?x537 ?x255) (<= (+ ?x543 ?x412) ?x10)) (and $x553 (<= ?x557 ?x94)))))
(let ((?x219 (- 20)))
(let ((?x528 (+ (+ (* ?x14 |v0:11|) (* (- 9) |v11:0|)) (* 4 |v9:2|))))
(let ((?x189 11))
(let (($x523 (<= (+ (+ (+ (* ?x47 |v11:0|) (* ?x189 |v7:4|)) ?x519) (* ?x94 |v7:4|)) ?x189)))
(let ((?x282 (- 6)))
(let ((?x511 (+ (+ (* (- 5) |v10:1|) (* 12 |v2:9|)) (* 10 |v5:6|))))
(let ((?x207 (- 9)))
(let ((?x471 (* ?x52 |v1:10|)))
(let ((?x505 (+ (+ (* 4 |v5:6|) (* 18 |v3:8|)) (* ?x162 |v0:11|))))
(let (($x533 (or (and (<= (+ ?x505 ?x471) ?x207) (<= (+ ?x511 (* ?x26 |v6:5|)) ?x282)) (and $x523 (<= (+ ?x528 (* (- 2) |v7:4|)) ?x219)))))
(let ((?x495 (+ (+ (* 0 |v6:5|) (* ?x207 |v4:7|)) (* 8 |v10:1|))))
(let ((?x417 (- 5)))
(let ((?x489 (+ (+ (+ (* 18 |v0:11|) (* ?x52 |v2:9|)) ?x221) (* ?x219 |v11:0|))))
(let ((?x224 (- 3)))
(let ((?x164 (* ?x19 |v9:2|)))
(let ((?x481 (+ (+ (+ (* ?x10 |v10:1|) (* (- 18) |v11:0|)) (* ?x417 |v9:2|)) ?x164)))
(let ((?x70 (- 2)))
(let ((?x474 (+ (+ (+ (* 15 |v9:2|) (* ?x41 |v2:9|)) ?x471) (* 16 |v4:7|))))
(let (($x500 (and (and (<= ?x474 ?x70) (<= ?x481 ?x224)) (and (<= ?x489 ?x417) (<= (+ ?x495 (* ?x105 |v11:0|)) ?x282)))))
(let ((?x64 4))
(let ((?x465 (+ (+ (+ (* 0 |v9:2|) (* ?x41 |v1:10|)) (* ?x91 |v6:5|)) (* 13 |v2:9|))))
(let ((?x458 (+ (+ (+ (* ?x189 |v8:3|) (* ?x23 |v0:11|)) (* ?x94 |v6:5|)) (* (- 18) |v9:2|))))
(let ((?x450 (+ (+ (+ (* 15 |v8:3|) (* ?x47 |v9:2|)) (* ?x52 |v4:7|)) (* 19 |v6:5|))))
(let ((?x276 2))
(let ((?x438 (+ (+ (* 14 |v11:0|) (* ?x94 |v1:10|)) (* (- 4) |v6:5|))))
(let (($x468 (and (and (<= (+ ?x438 (* ?x10 |v9:2|)) ?x276) (<= ?x450 ?x189)) (and (<= ?x458 ?x19) (<= ?x465 ?x64)))))
(let ((?x429 (* ?x26 |v11:0|)))
(let ((?x428 (+ (+ (* 6 |v8:3|) (* 12 |v2:9|)) (* ?x189 |v0:11|))))
(let ((?x424 (+ (+ (+ (* ?x94 |v3:8|) (* ?x162 |v7:4|)) (* 10 |v11:0|)) (* ?x64 |v2:9|))))
(let (($x418 (<= (+ (+ (+ ?x412 (* ?x162 |v3:8|)) (* ?x91 |v4:7|)) (* ?x14 |v9:2|)) ?x417)))
(let ((?x409 (+ (+ (+ (* ?x105 |v8:3|) (* ?x52 |v6:5|)) (* 10 |v4:7|)) (* ?x64 |v6:5|))))
(let (($x433 (and (and (<= ?x409 ?x70) $x418) (and (<= ?x424 ?x189) (<= (+ ?x428 ?x429) ?x255)))))
(let ((?x399 (+ (+ (+ (* ?x224 |v4:7|) (* 12 |v0:11|)) (* ?x10 |v1:10|)) (* ?x219 |v8:3|))))
(let ((?x393 (+ (+ (+ (* ?x112 |v9:2|) (* ?x282 |v4:7|)) (* (- 15) |v11:0|)) (* ?x282 |v11:0|))))
(let ((?x384 (+ (+ (+ (* ?x23 |v0:11|) (* ?x91 |v0:11|)) ?x381) (* (- 4) |v10:1|))))
(let ((?x120 8))
(let ((?x376 (+ (+ (+ (* 17 |v6:5|) (* ?x224 |v4:7|)) (* ?x91 |v4:7|)) (* ?x282 |v3:8|))))
(let (($x402 (and (and (<= ?x376 ?x120) (<= ?x384 ?x282)) (and (<= ?x393 ?x91) (<= ?x399 ?x26)))))
(let (($x620 (and (and (or $x402 $x433) (and $x468 $x500)) (and (and $x533 $x560) (or $x589 $x617)))))
(let ((?x75 18))
(let ((?x360 (* ?x75 |v3:8|)))
(let ((?x363 (+ (+ (+ (* ?x112 |v10:1|) (* (- 13) |v11:0|)) ?x360) (* 6 |v5:6|))))
(let ((?x268 (* ?x23 |v10:1|)))
(let ((?x356 (+ (+ (+ (* ?x112 |v2:9|) (* 17 |v3:8|)) (* ?x14 |v5:6|)) ?x268)))
(let ((?x349 (+ (+ (+ (* ?x120 |v11:0|) (* ?x224 |v2:9|)) (* 0 |v9:2|)) (* ?x26 |v7:4|))))
(let ((?x82 15))
(let ((?x116 17))
(let ((?x157 (* ?x116 |v4:7|)))
(let ((?x343 (+ (+ (+ (* ?x82 |v9:2|) (* 0 |v1:10|)) ?x157) (* 12 |v5:6|))))
(let (($x366 (and (and (<= ?x343 ?x82) (<= ?x349 ?x41)) (and (<= ?x356 ?x41) (<= ?x363 ?x219)))))
(let ((?x204 (- 13)))
(let ((?x334 (+ (+ (+ (* ?x19 |v4:7|) (* ?x75 |v2:9|)) (* 16 |v10:1|)) (* (- 4) |v3:8|))))
(let ((?x325 (* ?x94 |v1:10|)))
(let ((?x324 (+ (+ (* (- 15) |v10:1|) (* ?x52 |v8:3|)) (* 14 |v0:11|))))
(let ((?x169 16))
(let ((?x309 (* ?x169 |v5:6|)))
(let ((?x308 (+ (+ (* 0 |v11:0|) (* 14 |v4:7|)) (* ?x204 |v4:7|))))
(let (($x319 (and (<= (+ ?x308 ?x309) ?x112) (<= (+ (+ (+ (* ?x255 |v2:9|) (* ?x224 |v2:9|)) |v1:10|) ?x316) ?x255))))
(let ((?x299 (+ (+ (+ (* ?x219 |v4:7|) (* (- 15) |v6:5|)) (* ?x82 |v7:4|)) (* ?x105 |v4:7|))))
(let ((?x198 0))
(let ((?x293 (+ (+ (+ (* ?x14 |v8:3|) (* 12 |v2:9|)) (* ?x14 |v1:10|)) (* ?x120 |v6:5|))))
(let ((?x146 13))
(let ((?x284 (+ (+ (+ (* ?x276 |v4:7|) (* (- 8) |v0:11|)) (* ?x19 |v0:11|)) (* ?x282 |v8:3|))))
(let ((?x273 (+ (+ (+ (* ?x41 |v5:6|) ?x268) (* ?x105 |v0:11|)) (* (- 15) |v1:10|))))
(let (($x302 (and (and (<= ?x273 ?x189) (<= ?x284 ?x146)) (or (<= ?x293 ?x198) (<= ?x299 ?x116)))))
(let ((?x262 (+ (+ (* 6 |v8:3|) (* 6 |v0:11|)) (* (- 4) |v4:7|))))
(let ((?x257 (+ (+ (+ (* ?x91 |v7:4|) (* ?x204 |v3:8|)) (* ?x112 |v8:3|)) (* ?x255 |v6:5|))))
(let ((?x247 (+ (+ (+ (* ?x82 |v7:4|) (* ?x70 |v6:5|)) (* 14 |v10:1|)) (* ?x207 |v6:5|))))
(let ((?x240 (+ (+ (+ (* ?x82 |v11:0|) (* ?x94 |v10:1|)) (* ?x112 |v3:8|)) (* ?x14 |v10:1|))))
(let (($x267 (and (or (<= ?x240 ?x41) (<= ?x247 ?x207)) (and (<= ?x257 ?x255) (<= (+ ?x262 (* (- 18) |v1:10|)) ?x70)))))
(let (($x368 (and (and $x267 $x302) (and (and $x319 (and (<= (+ ?x324 ?x325) ?x189) (<= ?x334 ?x204))) $x366))))
(let (($x229 (<= (+ (+ (+ (* ?x219 |v7:4|) ?x221) (* ?x224 |v9:2|)) (* ?x204 |v7:4|)) ?x64)))
(let ((?x216 (+ (+ (+ (* ?x75 |v1:10|) (* ?x162 |v10:1|)) (* 14 |v10:1|)) (* 10 |v3:8|))))
(let ((?x206 (+ (+ (+ (* 10 |v7:4|) (* ?x198 |v3:8|)) (* ?x189 |v9:2|)) (* ?x204 |v5:6|))))
(let (($x194 (<= (+ (+ (+ ?x185 (* ?x169 |v3:8|)) (* ?x189 |v4:7|)) (* ?x112 |v10:1|)) ?x162)))
(let ((?x179 (* ?x19 |v0:11|)))
(let ((?x180 (+ (+ (+ (* ?x120 |v11:0|) (* ?x64 |v5:6|)) (* 14 |v7:4|)) ?x179)))
(let ((?x131 10))
(let (($x172 (<= (+ (+ (+ (* ?x162 |v7:4|) ?x164) (* ?x131 |v11:0|)) (* ?x169 |v2:9|)) ?x131)))
(let ((?x87 6))
(let ((?x158 (+ (+ (+ (* ?x120 |v7:4|) (* (- 4) |v0:11|)) (* ?x41 |v10:1|)) ?x157)))
(let ((?x148 (+ (+ (+ (* 12 |v10:1|) (* ?x41 |v5:6|)) (* ?x26 |v9:2|)) (* ?x146 |v10:1|))))
(let (($x184 (and (and (<= ?x148 ?x75) (<= ?x158 ?x87)) (or $x172 (<= ?x180 1)))))
(let ((?x133 (+ (+ (+ (* ?x10 |v4:7|) (* ?x10 |v8:3|)) (* ?x120 |v9:2|)) (* ?x131 |v6:5|))))
(let ((?x33 (- 15)))
(let ((?x122 (+ (+ (+ (* (- 8) |v6:5|) (* ?x112 |v8:3|)) (* ?x116 |v3:8|)) (* ?x120 |v2:9|))))
(let ((?x98 (- 8)))
(let ((?x106 (* ?x105 |v9:2|)))
(let ((?x107 (+ (+ (+ (* ?x26 |v10:1|) (* ?x98 |v11:0|)) (* (- 18) |v7:4|)) ?x106)))
(let ((?x93 (+ (+ (+ (* ?x19 |v10:1|) (* ?x82 |v1:10|)) (* ?x87 |v0:11|)) (* ?x91 |v10:1|))))
(let (($x136 (and (and (<= ?x93 ?x94) (<= ?x107 ?x98)) (and (<= ?x122 ?x33) (<= ?x133 ?x105)))))
(let ((?x74 (+ (+ (+ (* ?x64 |v10:1|) (* (- 18) |v10:1|)) (* ?x70 |v8:3|)) (* ?x26 |v3:8|))))
(let ((?x59 (+ (+ (+ (* ?x47 |v1:10|) (* ?x33 |v6:5|)) (* ?x52 |v9:2|)) (* 14 |v5:6|))))
(let ((?x43 (+ (+ (+ (* ?x14 |v9:2|) (* ?x33 |v2:9|)) (* (- 18) |v2:9|)) (* ?x41 |v11:0|))))
(let ((?x25 (+ (+ (+ (* ?x10 |v1:10|) (* ?x14 |v3:8|)) (* ?x19 |v6:5|)) (* ?x23 |v3:8|))))
(let (($x78 (and (and (<= ?x25 ?x26) (<= ?x43 ?x41)) (and (<= ?x59 ?x10) (<= ?x74 ?x75)))))
(let (($x233 (or (and $x78 $x136) (and $x184 (and (and $x194 (<= ?x206 ?x207)) (or (<= ?x216 ?x47) $x229))))))
(and (or $x233 $x368) $x620))))))))))))))))))))))))))))))))))))))))))))))))))))))))))))))))))))))))))))))))))))))))))))))))))))))))))))))))))))))))))))))))))))))))
)
)
)
)
)
)
)
)
)
)
)
)
(check-sat)
(exit)

